c 18_3_checker_6cl.cnf
c
c field = 18
c formula set type = 3_checker_6cl
c
p cnf 6 10
32 
36 
38 
-41 
-30 
-42 
33 
37 
39 
-40 
-31 
-43 
36 
38 
40 
-33 
-30 
-42 
37 
39 
41 
-32 
-31 
-43 
36 
38 
40 
-43 
-32 
-44 
37 
39 
41 
-42 
-33 
-45 
64 
94 
124 
-155 
-4 
-184 
65 
95 
125 
-154 
-5 
-185 
66 
98 
130 
-163 
-2 
-194 
67 
99 
131 
-162 
-3 
-195 
